c File: instances/38_0.40_1.col
c
c Description: Random graph of size 38 vertices and P(0.39999999999999997) of edges between any two vertices.
p col 38 703
e 1 3
e 1 5
e 1 6
e 1 7
e 1 11
e 1 13
e 1 15
e 1 16
e 1 17
e 1 19
e 1 21
e 1 25
e 1 28
e 1 30
e 1 32
e 1 38
e 2 8
e 2 9
e 2 10
e 2 11
e 2 15
e 2 18
e 2 19
e 2 20
e 2 22
e 2 24
e 2 27
e 2 28
e 2 30
e 2 32
e 2 34
e 2 37
e 3 5
e 3 8
e 3 10
e 3 11
e 3 13
e 3 14
e 3 16
e 3 17
e 3 18
e 3 19
e 3 20
e 3 23
e 3 24
e 3 26
e 3 27
e 3 28
e 3 31
e 3 34
e 3 37
e 3 38
e 4 5
e 4 7
e 4 8
e 4 12
e 4 15
e 4 17
e 4 19
e 4 24
e 4 29
e 4 32
e 4 34
e 4 37
e 5 8
e 5 9
e 5 11
e 5 13
e 5 14
e 5 27
e 5 28
e 5 29
e 5 30
e 5 37
e 5 38
e 6 15
e 6 16
e 6 17
e 6 19
e 6 20
e 6 21
e 6 22
e 6 25
e 6 26
e 6 28
e 6 32
e 6 33
e 6 35
e 6 36
e 6 38
e 7 8
e 7 9
e 7 13
e 7 14
e 7 16
e 7 17
e 7 18
e 7 20
e 7 21
e 7 28
e 7 29
e 7 30
e 7 31
e 7 35
e 7 38
e 8 10
e 8 13
e 8 17
e 8 18
e 8 24
e 8 29
e 8 30
e 8 32
e 8 35
e 8 36
e 8 38
e 9 10
e 9 13
e 9 20
e 9 21
e 9 23
e 9 24
e 9 28
e 9 29
e 9 32
e 9 35
e 9 37
e 9 38
e 10 19
e 10 22
e 10 24
e 10 25
e 10 26
e 10 28
e 10 29
e 10 30
e 10 32
e 10 34
e 10 35
e 10 38
e 11 15
e 11 16
e 11 19
e 11 20
e 11 21
e 11 25
e 11 26
e 11 28
e 11 29
e 11 30
e 11 31
e 11 33
e 11 35
e 11 36
e 11 38
e 12 13
e 12 15
e 12 16
e 12 19
e 12 22
e 12 23
e 12 25
e 12 26
e 12 27
e 12 29
e 12 31
e 12 32
e 12 33
e 12 34
e 12 35
e 12 37
e 13 18
e 13 19
e 13 20
e 13 21
e 13 22
e 13 23
e 13 24
e 13 25
e 13 30
e 13 32
e 13 33
e 13 34
e 13 35
e 13 36
e 13 38
e 14 15
e 14 16
e 14 18
e 14 21
e 14 26
e 14 28
e 14 31
e 14 36
e 14 37
e 14 38
e 15 17
e 15 20
e 15 21
e 15 28
e 15 29
e 15 33
e 15 34
e 16 21
e 16 33
e 16 34
e 16 35
e 16 37
e 17 18
e 17 21
e 17 25
e 17 26
e 17 28
e 17 31
e 17 33
e 17 35
e 18 19
e 18 20
e 18 22
e 18 23
e 18 25
e 18 26
e 18 29
e 18 30
e 19 22
e 19 26
e 19 34
e 20 22
e 20 23
e 20 24
e 20 33
e 20 34
e 21 27
e 21 28
e 21 29
e 21 30
e 21 31
e 21 34
e 22 23
e 22 26
e 22 27
e 22 30
e 22 32
e 22 34
e 22 36
e 23 24
e 23 26
e 23 28
e 23 32
e 23 33
e 23 34
e 24 27
e 24 29
e 24 31
e 24 33
e 24 34
e 24 36
e 24 38
e 25 27
e 25 31
e 25 33
e 25 34
e 25 36
e 26 28
e 26 38
e 27 31
e 27 35
e 27 36
e 27 37
e 28 30
e 28 31
e 28 32
e 28 33
e 28 34
e 29 33
e 29 35
e 29 36
e 29 38
e 30 31
e 30 32
e 30 34
e 30 35
e 30 38
e 31 32
e 31 34
e 31 36
e 31 37
e 32 33
e 32 34
e 32 37
e 32 38
e 33 34
e 33 36
e 34 35
e 35 38
e 36 37
e 36 38
e 37 38